** engineering-tools MIT sample — single C3D8 brick in tension
** Calls CalculiX (GPL); this deck itself is MIT (c) 2026 mhold3n
*HEADING
engineering-tools hello_beam
*NODE
1, 0.000000000000e+00, 0.000000000000e+00, 0.000000000000e+00
2, 1.000000000000e+01, 0.000000000000e+00, 0.000000000000e+00
3, 1.000000000000e+01, 1.000000000000e+00, 0.000000000000e+00
4, 0.000000000000e+00, 1.000000000000e+00, 0.000000000000e+00
5, 0.000000000000e+00, 0.000000000000e+00, 1.000000000000e+00
6, 1.000000000000e+01, 0.000000000000e+00, 1.000000000000e+00
7, 1.000000000000e+01, 1.000000000000e+00, 1.000000000000e+00
8, 0.000000000000e+00, 1.000000000000e+00, 1.000000000000e+00
*ELEMENT, TYPE=C3D8, ELSET=EALL
1, 1, 2, 3, 4, 5, 6, 7, 8
*MATERIAL, NAME=Steel
*ELASTIC
210000.0, 0.30
*SOLID SECTION, ELSET=EALL, MATERIAL=Steel
*BOUNDARY
1, 1, 3
4, 1, 3
5, 1, 3
8, 1, 3
*STEP
*STATIC
*CLOAD
2, 1, 25.0
3, 1, 25.0
6, 1, 25.0
7, 1, 25.0
*NODE FILE
U
*EL FILE
S
*END STEP
